instances/ampl_instances/ss_inst_17b_30n.dat
param set_len = 30;
param target = 993264;
param values := [0] 97576 [1] 113755 [2] 66852 [3] 108453 [4] 26559 [5] 72635 [6] 10341 [7] 82228 [8] 13016 [9] 55511 [10] 79416 [11] 13149 [12] 111152 [13] 114958 [14] 126294 [15] 115543 [16] 7901 [17] 130461 [18] 4587 [19] 119481 [20] 125024 [21] 24416 [22] 103514 [23] 83821 [24] 43060 [25] 50313 [26] 87487 [27] 90419 [28] 100819 [29] 90340 ;
