Project4/outputs/lp/ss_inst_17b_30n.out
_solve_elapsed_time = 0.003837

calculated_sum = 993264

target_sum = 993264

set_len = 30

x [*] :=
 1 1           7 1          13 1          19 0          25 0
 2 1           8 1          14 1          20 0          26 0
 3 1           9 1          15 0.219037   21 0          27 0
 4 1          10 1          16 0          22 0          28 0
 5 1          11 1          17 0          23 0          29 0
 6 1          12 1          18 0          24 0          30 0
;

